c Generated map
c Size: 9 * 9, weights in range: 1 to 10, walls: True, with ratio 0.1
c dim 8 of 8
c
p sp 81 118
c graph contains 81 nodes and 118 arcs
c
a 1 10 7
a 10 1 7
a 1 2 3
a 2 1 3
a 2 11 2
a 11 2 2
a 2 3 4
a 3 2 4
a 3 4 5
a 4 3 5
a 4 13 2
a 13 4 2
a 4 5 3
a 5 4 3
a 5 14 2
a 14 5 2
a 5 6 10
a 6 5 10
a 6 15 10
a 15 6 10
a 8 17 10
a 17 8 10
a 8 9 4
a 9 8 4
a 9 18 9
a 18 9 9
a 10 19 3
a 19 10 3
a 10 11 10
a 11 10 10
a 11 20 10
a 20 11 10
a 13 22 10
a 22 13 10
a 13 14 2
a 14 13 2
a 14 23 3
a 23 14 3
a 14 15 3
a 15 14 3
a 15 24 10
a 24 15 10
a 15 16 4
a 16 15 4
a 16 25 4
a 25 16 4
a 16 17 8
a 17 16 8
a 17 26 8
a 26 17 8
a 17 18 5
a 18 17 5
a 18 27 2
a 27 18 2
a 19 28 4
a 28 19 4
a 19 20 9
a 20 19 9
a 20 29 2
a 29 20 2
a 20 21 8
a 21 20 8
a 21 30 2
a 30 21 2
a 21 22 2
a 22 21 2
a 22 31 8
a 31 22 8
a 22 23 4
a 23 22 4
a 23 32 1
a 32 23 1
a 23 24 9
a 24 23 9
a 24 33 5
a 33 24 5
a 24 25 5
a 25 24 5
a 25 34 3
a 34 25 3
a 25 26 4
a 26 25 4
a 26 27 2
a 27 26 2
a 27 36 8
a 36 27 8
a 28 37 8
a 37 28 8
a 28 29 4
a 29 28 4
a 29 38 2
a 38 29 2
a 29 30 4
a 30 29 4
a 30 39 2
a 39 30 2
a 30 31 5
a 31 30 5
a 31 40 5
a 40 31 5
a 31 32 9
a 32 31 9
a 32 41 6
a 41 32 6
a 32 33 9
a 33 32 9
a 33 42 1
a 42 33 1
a 33 34 5
a 34 33 5
a 34 43 3
a 43 34 3
a 36 45 8
a 45 36 8
a 37 46 7
a 46 37 7
a 37 38 4
a 38 37 4
a 38 47 2
a 47 38 2
a 38 39 2
a 39 38 2
a 39 48 4
a 48 39 4
a 39 40 8
a 40 39 8
a 40 49 2
a 49 40 2
a 40 41 1
a 41 40 1
a 41 50 3
a 50 41 3
a 41 42 8
a 42 41 8
a 42 51 6
a 51 42 6
a 42 43 4
a 43 42 4
a 43 52 7
a 52 43 7
a 43 44 4
a 44 43 4
a 44 53 1
a 53 44 1
a 44 45 3
a 45 44 3
a 45 54 1
a 54 45 1
a 46 55 7
a 55 46 7
a 46 47 1
a 47 46 1
a 47 56 6
a 56 47 6
a 47 48 9
a 48 47 9
a 48 57 3
a 57 48 3
a 48 49 8
a 49 48 8
a 49 58 7
a 58 49 7
a 49 50 10
a 50 49 10
a 50 59 1
a 59 50 1
a 50 51 4
a 51 50 4
a 51 60 8
a 60 51 8
a 51 52 8
a 52 51 8
a 52 61 5
a 61 52 5
a 52 53 10
a 53 52 10
a 53 62 5
a 62 53 5
a 53 54 7
a 54 53 7
a 55 56 7
a 56 55 7
a 56 65 10
a 65 56 10
a 56 57 8
a 57 56 8
a 57 58 2
a 58 57 2
a 58 67 8
a 67 58 8
a 58 59 9
a 59 58 9
a 59 68 5
a 68 59 5
a 59 60 2
a 60 59 2
a 60 69 7
a 69 60 7
a 60 61 6
a 61 60 6
a 61 62 4
a 62 61 4
a 62 71 9
a 71 62 9
a 65 74 3
a 74 65 3
a 67 76 9
a 76 67 9
a 67 68 10
a 68 67 10
a 68 77 7
a 77 68 7
a 68 69 3
a 69 68 3
a 69 78 8
a 78 69 8
a 71 80 9
a 80 71 9
a 71 72 7
a 72 71 7
a 72 81 3
a 81 72 3
a 74 75 4
a 75 74 4
a 75 76 1
a 76 75 1
a 76 77 4
a 77 76 4
a 77 78 7
a 78 77 7
a 78 79 10
a 79 78 10
a 79 80 5
a 80 79 5
a 80 81 8
a 81 80 8
